WARNING: for repeatability, setting FPU to use double precision
============================[ Problem Statistics ]=============================
|                                                                             |
|  Number of variables:        221565                                         |
|  Number of clauses:          522712                                         |
|  Parse time:                   0.27 s                                       |
|                                                                             |
============================[ Search Statistics ]==============================
| Conflicts |          ORIGINAL         |          LEARNT          | Progress |
|           |    Vars  Clauses Literals |    Limit  Clauses Lit/Cl |          |
===============================================================================
|       100 |  123824   503018  1128860 |   184439      100     16 | 44.114 % |
|       250 |  123824   503018  1128860 |   202883      250     27 | 44.114 % |
|       475 |  123824   503018  1128860 |   223172      475     33 | 44.114 % |
===============================================================================
restarts              : 6
conflicts             : 697            (807 /sec)
decisions             : 13674          (0.00 % random) (15825 /sec)
propagations          : 2316487        (2680952 /sec)
conflict literals     : 22976          (4.18 % deleted)
Memory used           : 57.00 MB
CPU time              : 0.864054 s

SATISFIABLE
